# opt
221

# k
5

# sites
13 36
7 51
70 58
97 94
70 47
37 79
37 87
15 76
51 71
33 11
17 17
60 91
12 84
5 1
36 27

# demandes
10 14 6 10 14 6 10 14 6 10 14 6 10 14 6 10 14 6 10 14 6 10 14 6 10 14 6 10 14 6 10 14 6 10 14 6 10 14 6 10 14 6 10 14 6 10 14 6 10 14 6 10 14 6 10 14 6 10 14 6 10 14 6 10 14 6 10 14 6 10 14 6 10 14 6 10 14 6 10 14 6 10 14 6 10 14 6 10 14 6 10 14 6 10 14 6 10 14 6 10 14 6 10 14 6 10 14 6 10 14 6 10 14 6 10 14 6 10 14 6 10 14 6 10 14 6 10 14 6 10 14 6 10 14 6 10 14 6 10 14 6 10 14 6 10 14 6 10 14 6 10 14 6 10 14 6 10 14 6 10 14 6 10 14 6 10 14 6 10 14 6 10 14 6 10 14 6 10 14 6 10 14 6 10 14 6 10 14 6 10 14 6 10 14 6 10 14 6 10 14 
