# opt
246

# k
5

# sites
99 93
50 3
21 41
66 77
9 59
67 18
9 68
63 11
6 12
17 7
45 18
8 11
67 26
34 73
5 7

# demandes
6 2 13 6 2 13 6 2 13 6 2 13 6 2 13 6 2 13 6 2 13 6 2 13 6 2 13 6 2 13 6 2 13 6 2 13 6 2 13 6 2 13 6 2 13 6 2 13 6 2 13 6 2 13 6 2 13 6 2 13 6 2 13 6 2 13 6 2 13 6 2 13 6 2 13 6 2 13 6 2 13 6 2 13 6 2 13 6 2 13 6 2 13 6 2 13 6 2 13 6 2 13 6 2 13 6 2 13 6 2 13 6 2 13 6 2 13 6 2 13 6 2 13 6 2 13 6 2 13 6 2 13 6 2 13 6 2 13 6 2 13 6 2 13 6 2 13 6 2 13 6 2 13 6 2 13 6 2 13 6 2 13 6 2 13 6 2 13 6 2 13 6 2 13 6 2 13 6 2 13 6 2 13 6 2 13 6 2 13 6 2 13 6 2 13 6 2 13 6 2 13 6 2 13 6 2 13 6 2 13 6 2 13 6 2 13 6 2 13 6 2 13 6 2 13 6 2 13 6 2 13 6 2 13 6 2 13 6 2 13 6 2 13 6 2 13 6 2 13 6 2 13 6 2 13 6 2 13 6 2 13 6 2 13 6 2 13 6 2 13 6 2 13 6 2 13 6 2 13 6 2 13 6 2 13 6 2 13 6 2 13 6 2 13 6 2 13 6 2 13 
