# opt
7236

# k
5

# sites
71 95
36 90
78 23
62 99
58 80
2 5
43 35
4 30
27 95
83 81
7 64
57 73
92 63
10 60
23 59

# demandes
11 5 4 7 13 6 2 14 12 8 1 9 3 10 0 11 5 4 7 13 6 2 14 12 8 1 9 3 10 0 11 5 4 7 13 6 2 14 12 8 1 9 3 10 0 11 5 4 7 13 6 2 14 12 8 1 9 3 10 0 11 5 4 7 13 6 2 14 12 8 1 9 3 10 0 11 5 4 7 13 6 2 14 12 8 1 9 3 10 0 11 5 4 7 13 6 2 14 12 8 1 9 3 10 0 11 5 4 7 13 6 2 14 12 8 1 9 3 10 0 11 5 4 7 13 6 2 14 12 8 1 9 3 10 0 11 5 4 7 13 6 2 14 12 8 1 9 3 10 0 11 5 4 7 13 6 2 14 12 8 1 9 3 10 0 11 5 4 7 13 6 2 14 12 8 1 9 3 10 0 11 5 4 7 13 6 2 14 12 8 1 9 3 10 0 11 5 4 7 13 6 2 14 12 8 1 9 3 10 0 11 5 4 7 13 6 2 14 12 8 1 9 3 10 0 11 5 4 7 13 6 2 14 12 8 1 9 3 10 0 11 5 4 7 13 6 2 14 12 8 1 9 3 10 0 11 5 4 7 13 6 2 14 12 8 1 9 3 10 0 11 5 4 7 13 6 2 14 12 8 1 9 3 10 0 11 5 4 7 13 6 2 14 12 8 1 9 3 10 0 
