# opt
200

# k
5

# sites
68 41
29 49
4 3
40 13
13 30
76 57
22 52
10 63
21 61
83 84
0 22
53 88
21 78
84 9
72 49
43 28
46 66
11 77
61 32
62 25
84 31
92 41
6 39
70 95
29 22

# demandes
7 8 22 7 8 22 7 8 22 7 8 22 7 8 22 7 8 22 7 8 22 7 8 22 7 8 22 7 8 22 7 8 22 7 8 22 7 8 22 7 8 22 7 8 22 7 8 22 7 8 22 7 8 22 7 8 22 7 8 22 7 8 22 7 8 22 7 8 22 7 8 22 7 8 22 7 8 22 7 8 22 7 8 22 7 8 22 7 8 22 7 8 22 7 8 22 7 8 22 7 8 22 7 8 22 7 8 22 7 8 22 7 8 22 7 8 22 7 8 22 7 8 22 7 8 22 7 8 22 7 8 22 7 8 22 7 8 22 7 8 22 7 8 22 7 8 22 7 8 22 7 8 22 7 8 22 7 8 22 7 8 22 7 8 22 7 8 22 7 8 22 7 8 22 7 8 22 7 8 22 7 8 22 7 8 22 7 8 22 7 8 22 7 8 22 7 8 22 7 8 22 7 8 22 7 8 22 7 8 22 7 8 22 7 8 22 7 8 22 7 8 22 7 8 22 7 8 22 7 8 22 7 8 22 7 8 22 7 8 22 7 8 22 7 8 22 7 8 22 7 8 22 7 8 22 7 8 22 7 8 22 7 8 22 7 8 22 7 8 22 7 8 22 7 8 22 7 8 22 7 8 22 7 8 22 7 8 22 7 8 22 7 8 22 7 8 22 7 8 22 
