# opt
5038

# k
5

# sites
74 0
42 4
5 5
52 91
27 27
76 48
78 66
78 20
77 17
85 5
52 31
77 21
78 30
25 49
67 36
18 45
39 0
83 40
8 55
38 73
99 96
94 1
2 62
54 44
22 50

# demandes
8 18 1 12 11 21 21 5 12 24 13 5 4 13 11 20 6 19 8 0 11 14 1 18 12 23 23 19 20 6 18 11 3 21 15 23 6 12 23 7 12 4 0 13 10 24 6 9 4 12 14 10 11 3 23 13 8 13 16 12 22 1 1 22 16 16 9 9 0 20 19 5 12 21 11 19 19 15 13 7 11 3 6 3 1 12 23 4 22 13 17 13 24 2 14 9 6 1 3 16 20 7 5 3 10 17 4 3 23 0 0 15 13 23 10 15 18 15 11 13 20 4 21 14 0 15 8 16 12 6 16 13 21 6 21 20 23 15 2 15 3 4 9 13 20 18 11 17 18 14 12 16 17 11 5 13 5 18 19 19 16 10 15 13 15 11 18 2 20 9 6 12 4 22 4 20 11 4 6 3 1 1 14 8 7 14 15 13 24 4 19 11 18 9 11 15 23 4 0 21 3 4 19 8 15 8 3 9 5 2 12 1 10 11 22 1 9 23 3 6 1 12 24 9 2 14 13 1 24 0 16 22 2 19 10 11 20 18 9 16 1 16 13 20 1 4 21 12 12 1 
