# opt
231

# k
5

# sites
64 80
6 23
28 76
9 96
9 8
43 13
1 40
34 47
49 80
19 67
2 47
40 6
43 79
45 39
53 98
45 9
99 94
50 58
71 83
3 2
73 40
24 62
31 80
21 80
38 64

# demandes
2 7 11 2 7 11 2 7 11 2 7 11 2 7 11 2 7 11 2 7 11 2 7 11 2 7 11 2 7 11 2 7 11 2 7 11 2 7 11 2 7 11 2 7 11 2 7 11 2 7 11 2 7 11 2 7 11 2 7 11 2 7 11 2 7 11 2 7 11 2 7 11 2 7 11 2 7 11 2 7 11 2 7 11 2 7 11 2 7 11 2 7 11 2 7 11 2 7 11 2 7 11 2 7 11 2 7 11 2 7 11 2 7 11 2 7 11 2 7 11 2 7 11 2 7 11 2 7 11 2 7 11 2 7 11 2 7 11 2 7 11 2 7 11 2 7 11 2 7 11 2 7 11 2 7 11 2 7 11 2 7 11 2 7 11 2 7 11 2 7 11 2 7 11 2 7 11 2 7 11 2 7 11 2 7 11 2 7 11 2 7 11 2 7 11 2 7 11 2 7 11 2 7 11 2 7 11 2 7 11 2 7 11 2 7 11 2 7 11 2 7 11 2 7 11 2 7 11 2 7 11 2 7 11 2 7 11 2 7 11 2 7 11 2 7 11 2 7 11 2 
